c Generated map
c Size: 10 * 10, weights in range: 1 to 10, walls: False, with ratio 0.0
c dim 4 of 7
c
p sp 100 180
c graph contains 100 nodes and 180 arcs
c
a 1 11 10
a 11 1 10
a 1 2 7
a 2 1 7
a 2 12 1
a 12 2 1
a 2 3 10
a 3 2 10
a 3 13 3
a 13 3 3
a 3 4 1
a 4 3 1
a 4 14 6
a 14 4 6
a 4 5 8
a 5 4 8
a 5 15 5
a 15 5 5
a 5 6 4
a 6 5 4
a 6 16 4
a 16 6 4
a 6 7 7
a 7 6 7
a 7 17 8
a 17 7 8
a 7 8 2
a 8 7 2
a 8 18 1
a 18 8 1
a 8 9 6
a 9 8 6
a 9 19 2
a 19 9 2
a 9 10 3
a 10 9 3
a 10 20 10
a 20 10 10
a 11 21 4
a 21 11 4
a 11 12 6
a 12 11 6
a 12 22 6
a 22 12 6
a 12 13 7
a 13 12 7
a 13 23 10
a 23 13 10
a 13 14 7
a 14 13 7
a 14 24 5
a 24 14 5
a 14 15 7
a 15 14 7
a 15 25 8
a 25 15 8
a 15 16 9
a 16 15 9
a 16 26 10
a 26 16 10
a 16 17 4
a 17 16 4
a 17 27 3
a 27 17 3
a 17 18 4
a 18 17 4
a 18 28 6
a 28 18 6
a 18 19 7
a 19 18 7
a 19 29 10
a 29 19 10
a 19 20 6
a 20 19 6
a 20 30 2
a 30 20 2
a 21 31 7
a 31 21 7
a 21 22 2
a 22 21 2
a 22 32 7
a 32 22 7
a 22 23 6
a 23 22 6
a 23 33 3
a 33 23 3
a 23 24 9
a 24 23 9
a 24 34 6
a 34 24 6
a 24 25 2
a 25 24 2
a 25 35 7
a 35 25 7
a 25 26 6
a 26 25 6
a 26 36 5
a 36 26 5
a 26 27 8
a 27 26 8
a 27 37 7
a 37 27 7
a 27 28 4
a 28 27 4
a 28 38 8
a 38 28 8
a 28 29 2
a 29 28 2
a 29 39 5
a 39 29 5
a 29 30 1
a 30 29 1
a 30 40 9
a 40 30 9
a 31 41 1
a 41 31 1
a 31 32 6
a 32 31 6
a 32 42 4
a 42 32 4
a 32 33 6
a 33 32 6
a 33 43 4
a 43 33 4
a 33 34 6
a 34 33 6
a 34 44 4
a 44 34 4
a 34 35 9
a 35 34 9
a 35 45 8
a 45 35 8
a 35 36 4
a 36 35 4
a 36 46 9
a 46 36 9
a 36 37 2
a 37 36 2
a 37 47 6
a 47 37 6
a 37 38 6
a 38 37 6
a 38 48 3
a 48 38 3
a 38 39 9
a 39 38 9
a 39 49 2
a 49 39 2
a 39 40 6
a 40 39 6
a 40 50 7
a 50 40 7
a 41 51 8
a 51 41 8
a 41 42 7
a 42 41 7
a 42 52 4
a 52 42 4
a 42 43 2
a 43 42 2
a 43 53 9
a 53 43 9
a 43 44 3
a 44 43 3
a 44 54 4
a 54 44 4
a 44 45 6
a 45 44 6
a 45 55 4
a 55 45 4
a 45 46 4
a 46 45 4
a 46 56 8
a 56 46 8
a 46 47 5
a 47 46 5
a 47 57 3
a 57 47 3
a 47 48 1
a 48 47 1
a 48 58 6
a 58 48 6
a 48 49 4
a 49 48 4
a 49 59 8
a 59 49 8
a 49 50 8
a 50 49 8
a 50 60 5
a 60 50 5
a 51 61 10
a 61 51 10
a 51 52 9
a 52 51 9
a 52 62 6
a 62 52 6
a 52 53 6
a 53 52 6
a 53 63 5
a 63 53 5
a 53 54 1
a 54 53 1
a 54 64 3
a 64 54 3
a 54 55 8
a 55 54 8
a 55 65 7
a 65 55 7
a 55 56 5
a 56 55 5
a 56 66 6
a 66 56 6
a 56 57 1
a 57 56 1
a 57 67 3
a 67 57 3
a 57 58 1
a 58 57 1
a 58 68 6
a 68 58 6
a 58 59 9
a 59 58 9
a 59 69 4
a 69 59 4
a 59 60 1
a 60 59 1
a 60 70 8
a 70 60 8
a 61 71 10
a 71 61 10
a 61 62 7
a 62 61 7
a 62 72 7
a 72 62 7
a 62 63 3
a 63 62 3
a 63 73 7
a 73 63 7
a 63 64 10
a 64 63 10
a 64 74 8
a 74 64 8
a 64 65 8
a 65 64 8
a 65 75 10
a 75 65 10
a 65 66 1
a 66 65 1
a 66 76 5
a 76 66 5
a 66 67 1
a 67 66 1
a 67 77 7
a 77 67 7
a 67 68 4
a 68 67 4
a 68 78 7
a 78 68 7
a 68 69 5
a 69 68 5
a 69 79 7
a 79 69 7
a 69 70 8
a 70 69 8
a 70 80 5
a 80 70 5
a 71 81 4
a 81 71 4
a 71 72 10
a 72 71 10
a 72 82 1
a 82 72 1
a 72 73 9
a 73 72 9
a 73 83 2
a 83 73 2
a 73 74 2
a 74 73 2
a 74 84 3
a 84 74 3
a 74 75 1
a 75 74 1
a 75 85 8
a 85 75 8
a 75 76 7
a 76 75 7
a 76 86 2
a 86 76 2
a 76 77 3
a 77 76 3
a 77 87 6
a 87 77 6
a 77 78 4
a 78 77 4
a 78 88 9
a 88 78 9
a 78 79 1
a 79 78 1
a 79 89 7
a 89 79 7
a 79 80 5
a 80 79 5
a 80 90 3
a 90 80 3
a 81 91 9
a 91 81 9
a 81 82 8
a 82 81 8
a 82 92 1
a 92 82 1
a 82 83 8
a 83 82 8
a 83 93 7
a 93 83 7
a 83 84 9
a 84 83 9
a 84 94 10
a 94 84 10
a 84 85 8
a 85 84 8
a 85 95 4
a 95 85 4
a 85 86 1
a 86 85 1
a 86 96 9
a 96 86 9
a 86 87 9
a 87 86 9
a 87 97 3
a 97 87 3
a 87 88 6
a 88 87 6
a 88 98 2
a 98 88 2
a 88 89 6
a 89 88 6
a 89 99 2
a 99 89 2
a 89 90 1
a 90 89 1
a 90 100 1
a 100 90 1
a 91 92 2
a 92 91 2
a 92 93 8
a 93 92 8
a 93 94 7
a 94 93 7
a 94 95 8
a 95 94 8
a 95 96 3
a 96 95 3
a 96 97 6
a 97 96 6
a 97 98 6
a 98 97 6
a 98 99 10
a 99 98 10
a 99 100 7
a 100 99 7
